>> Start of run:   3-AUG-2014  16:53:43

reinit: Reading from standard input
************************** Dump of input data file ****************************
#(1) General system descriptors
SystemName       cc_strain   # Descriptive name of the system
SystemLabel      cc_strain   # Short name for naming files
%include STRUCT.fdf
%include KPT.fdf
%include BASIS.fdf
#(4) DFT, Grid, SCF
XC.functional         LDA           # LDA or GGA (default = LDA)
XC.authors            CA            # CA (Ceperley-Aldr) = PZ
MeshCutoff            200.0 Ry      # Default: 50.0 Ry ~ 0.444 Bohr
MaxSCFIterations      200           # Default: 50
DM.MixingWeight       0.10          # Default: 0.25
DM.NumberPulay        3             # Default: 0
DM.PulayOnFile        F             # SystemLabel.P1, SystemLabel.P2
DM.Tolerance          1.d-6         # Default: 1.d-4
NeglNonOverlapInt     F             # Default: F
#(5) Eigenvalue problem: order-N or diagonalization
SolutionMethod        Diagon        # Default: OrderN/Diagon for >/< 100 atoms
ElectronicTemperature 300.0 K       # Default: 300.0 K
#(6) Molecular dynamics and relaxations
#MD.TypeOfRun          CG            # Type of dynamics:
                                    #   - CG
                                    #   - Verlet
                                    #   - Nose
                                    #   - ParrinelloRahman
                                    #   - NoseParrinelloRahman
                                    #   - Anneal
                                    #   - FC
                                    #   - Phonon
#MD.VariableCell        F
#MD.NumCGsteps          200           # Default: 0
#MD.MaxCGDispl          0.1 Ang       # Default: 0.2 Bohr
#MD.MaxForceTol         0.001 eV/Ang   # Default: 0.04 eV/Ang
#MD.MaxStressTol        1.0 GPa       # Default: 1.0 GPa
#(9) Output options
#WriteCoorInitial      T      # SystemLabel.out
#WriteKpoints          T      # SystemLabel.out
#WriteEigenvalues      T      # SystemLabel.out [otherwise ~.EIG]
#WriteKbands           T      # SystemLabel.out, band structure
#WriteBands            T      # SystemLabel.bands, band structure
#WriteMDXmol           T      # SystemLabel.ANI
#AllocReportLevel      2      # SystemLabel.alloc, Default: 0
#(10) Options for saving/reading information
#SaveHS                F      # SystemLabel.HS
#SaveRho               F      # SystemLabel.RHO
#SaveDeltaRho          F      # SystemLabel.DRHO
#SaveElectrostaticPotential F # SystemLabel.VH
#SaveTotalPotential    F      # SystemLabel.VT
************************** End of input data file *****************************

reinit: -----------------------------------------------------------------------
reinit: System Name: cc_strain
reinit: -----------------------------------------------------------------------
reinit: System Label: cc_strain
reinit: -----------------------------------------------------------------------

initatom: Reading input for the pseudopotentials and atomic orbitals ----------
 Species number:            1  Label: C Atomic number:           6
Ground state valence configuration:   2s02  2p02
Reading pseudopotential information in formatted form from C.psf

Valence configuration for pseudopotential generation:
2s( 2.00) rc: 1.54
2p( 2.00) rc: 1.54
3d( 0.00) rc: 1.54
4f( 0.00) rc: 1.54
For C, standard SIESTA heuristics set lmxkb to 3
 (one more than the basis l, including polarization orbitals).
Use PS.lmax or PS.KBprojectors blocks to override.

<basis_specs>
C                    Z=   6    Mass=  12.010        Charge= 0.17977+309
Lmxo=1 Lmxkb= 3    BasisType=split      Semic=F
L=0  Nsemic=0  Cnfigmx=2
          n=1  nzeta=2  polorb=0
            splnorm:   0.15000
               vcte:    0.0000
               rinn:    0.0000
                rcs:    0.0000      0.0000
            lambdas:    1.0000      1.0000
L=1  Nsemic=0  Cnfigmx=2
          n=1  nzeta=2  polorb=1
            splnorm:   0.15000
               vcte:    0.0000
               rinn:    0.0000
                rcs:    0.0000      0.0000
            lambdas:    1.0000      1.0000
L=0  Nkbl=1  erefs: 0.17977+309
L=1  Nkbl=1  erefs: 0.17977+309
L=2  Nkbl=1  erefs: 0.17977+309
L=3  Nkbl=1  erefs: 0.17977+309
</basis_specs>

atom: Called for C                     (Z =   6)

read_vps: Pseudopotential generation method:
read_vps: ATM3      Troullier-Martins
Total valence charge:    4.00000

xc_check: Exchange-correlation functional:
xc_check: Ceperley-Alder
V l=0 = -2*Zval/r beyond r=  1.5227
V l=1 = -2*Zval/r beyond r=  1.5227
V l=2 = -2*Zval/r beyond r=  1.5227
V l=3 = -2*Zval/r beyond r=  1.5038
All V_l potentials equal beyond r=  1.5227
This should be close to max(r_c) in ps generation
All pots = -2*Zval/r beyond r=  1.5227

VLOCAL1: 99.0% of the norm of Vloc inside     18.722 Ry
VLOCAL1: 99.9% of the norm of Vloc inside     42.668 Ry
atom: Maximum radius for 4*pi*r*r*local-pseudopot. charge    1.83678
atom: Maximum radius for r*vlocal+2*Zval:    1.58088
GHOST: No ghost state for L =  0
GHOST: No ghost state for L =  1
GHOST: No ghost state for L =  2
GHOST: No ghost state for L =  3

KBgen: Kleinman-Bylander projectors:
   l= 0   rc=  1.747182   el= -1.001948   Ekb=  4.950286   kbcos=  0.319819
   l= 1   rc=  1.747182   el= -0.398598   Ekb= -4.108613   kbcos= -0.367053
   l= 2   rc=  1.930978   el=  0.002326   Ekb= -1.042946   kbcos= -0.009366
   l= 3   rc=  2.055542   el=  0.003420   Ekb= -0.408633   kbcos= -0.001262

KBgen: Total number of  Kleinman-Bylander projectors:   16
atom: -------------------------------------------------------------------------

atom: SANKEY-TYPE ORBITALS:
atom: Selected multiple-zeta basis: split

SPLIT: Orbitals with angular momentum L= 0

SPLIT: Basis orbitals for state 2s

SPLIT: PAO cut-off radius determined from an
SPLIT: energy shift=  0.007350 Ry

   izeta = 1
                 lambda =    1.000000
                     rc =    4.750042
                 energy =   -0.995550
                kinetic =    0.836554
    potential(screened) =   -1.832105
       potential(ionic) =   -5.411563

   izeta = 2
                 rmatch =    3.475094
              splitnorm =    0.150000
                 energy =   -0.863818
                kinetic =    1.275700
    potential(screened) =   -2.139519
       potential(ionic) =   -5.974623

SPLIT: Orbitals with angular momentum L= 1

SPLIT: Basis orbitals for state 2p

SPLIT: PAO cut-off radius determined from an
SPLIT: energy shift=  0.007350 Ry

   izeta = 1
                 lambda =    1.000000
                     rc =    5.658549
                 energy =   -0.391318
                kinetic =    2.418316
    potential(screened) =   -2.809634
       potential(ionic) =   -6.260731

   izeta = 2
                 rmatch =    3.653288
              splitnorm =    0.150000
                 energy =   -0.250682
                kinetic =    3.628438
    potential(screened) =   -3.879120
       potential(ionic) =   -7.728599

POLgen: Perturbative polarization orbital with L=  2

POLgen: Polarization orbital for state 2p

   izeta = 1
                     rc =    5.658549
                 energy =    1.095459
                kinetic =    2.293542
    potential(screened) =   -1.198083
       potential(ionic) =   -4.007104
atom: Total number of Sankey-type orbitals: 13

atm_pop: Valence configuration (for local Pseudopot. screening):
 2s( 2.00)
 2p( 2.00)
Vna: chval, zval:    4.00000   4.00000

Vna:  Cut-off radius for the neutral-atom potential:   5.658549

atom: _________________________________________________________________________

prinput: Basis input ----------------------------------------------------------

PAO.BasisType split

%block ChemicalSpeciesLabel
    1    6 C                       # Species index, atomic number, species label
%endblock ChemicalSpeciesLabel

%block PAO.Basis                 # Define Basis set
C                     2                    # Species label, number of l-shells
 n=2   0   2                         # n, l, Nzeta
   4.750      3.475
   1.000      1.000
 n=2   1   2 P   1                   # n, l, Nzeta, Polarization, NzetaPol
   5.659      3.653
   1.000      1.000
%endblock PAO.Basis

prinput: ----------------------------------------------------------------------

coor:   Atomic-coordinates input format  =     Cartesian coordinates
coor:                                          (in Angstroms)

siesta: Atomic coordinates (Bohr) and species
siesta:     18.89607  18.89726  -0.01886  1        1
siesta:     18.89725  18.89726 121.09370  1        2
siesta:     18.89725  18.89726 242.18740  1        3
siesta:     18.89725  18.89726 363.28109  1        4
siesta:     18.89725  18.89726 484.37479  1        5
siesta:     18.89725  18.89726   2.58953  1        6
siesta:     18.89725  18.89726 123.68323  1        7
siesta:     18.89725  18.89726 244.77693  1        8
siesta:     18.89725  18.89726 365.87062  1        9
siesta:     18.89725  18.89726 486.96432  1       10
siesta:     18.89725  18.89726   5.04557  1       11
siesta:     18.89725  18.89726 126.13927  1       12
siesta:     18.89725  18.89726 247.23297  1       13
siesta:     18.89725  18.89726 368.32667  1       14
siesta:     18.89725  18.89726 489.42036  1       15
siesta:     18.89725  18.89726   7.63510  1       16
siesta:     18.89725  18.89726 128.72880  1       17
siesta:     18.89725  18.89726 249.82250  1       18
siesta:     18.89725  18.89726 370.91619  1       19
siesta:     18.89725  18.89726 492.00989  1       20
siesta:     18.89725  18.89726  10.09114  1       21
siesta:     18.89725  18.89726 131.18484  1       22
siesta:     18.89725  18.89726 252.27854  1       23
siesta:     18.89725  18.89726 373.37224  1       24
siesta:     18.89725  18.89726 494.46593  1       25
siesta:     18.89725  18.89726  12.68067  1       26
siesta:     18.89725  18.89726 133.77437  1       27
siesta:     18.89725  18.89726 254.86807  1       28
siesta:     18.89725  18.89726 375.96177  1       29
siesta:     18.89725  18.89726 497.05546  1       30
siesta:     18.89725  18.89726  15.13671  1       31
siesta:     18.89725  18.89726 136.23041  1       32
siesta:     18.89725  18.89726 257.32411  1       33
siesta:     18.89725  18.89726 378.41781  1       34
siesta:     18.89725  18.89726 499.51151  1       35
siesta:     18.89725  18.89726  17.72624  1       36
siesta:     18.89725  18.89726 138.81994  1       37
siesta:     18.89725  18.89726 259.91364  1       38
siesta:     18.89725  18.89726 381.00734  1       39
siesta:     18.89725  18.89726 502.10103  1       40
siesta:     18.89725  18.89726  20.18228  1       41
siesta:     18.89725  18.89726 141.27598  1       42
siesta:     18.89725  18.89726 262.36968  1       43
siesta:     18.89725  18.89726 383.46338  1       44
siesta:     18.89725  18.89726 504.55708  1       45
siesta:     18.89725  18.89726  22.77181  1       46
siesta:     18.89725  18.89726 143.86551  1       47
siesta:     18.89725  18.89726 264.95921  1       48
siesta:     18.89725  18.89726 386.05291  1       49
siesta:     18.89725  18.89726 507.14660  1       50
siesta:     18.89725  18.89726  25.22785  1       51
siesta:     18.89725  18.89726 146.32155  1       52
siesta:     18.89725  18.89726 267.41525  1       53
siesta:     18.89725  18.89726 388.50895  1       54
siesta:     18.89725  18.89726 509.60265  1       55
siesta:     18.89725  18.89726  27.81738  1       56
siesta:     18.89725  18.89726 148.91108  1       57
siesta:     18.89725  18.89726 270.00478  1       58
siesta:     18.89725  18.89726 391.09848  1       59
siesta:     18.89725  18.89726 512.19218  1       60
[...]
siesta:     18.89725  18.89726 113.59209  1      226
siesta:     18.89725  18.89726 234.68578  1      227
siesta:     18.89725  18.89726 355.77948  1      228
siesta:     18.89725  18.89726 476.87318  1      229
siesta:     18.89725  18.89726 597.96688  1      230
siesta:     18.89725  18.89726 116.04813  1      231
siesta:     18.89725  18.89726 237.14183  1      232
siesta:     18.89725  18.89726 358.23552  1      233
siesta:     18.89725  18.89726 479.32922  1      234
siesta:     18.89725  18.89726 600.42292  1      235
siesta:     18.89725  18.89726 118.63766  1      236
siesta:     18.89725  18.89726 239.73135  1      237
siesta:     18.89725  18.89726 360.82505  1      238
siesta:     18.89725  18.89726 481.91875  1      239
siesta:     18.89725  18.89726 603.01245  1      240

siesta: System type = chain

initatomlists: Number of atoms, orbitals, and projectors:    240  3120  3840

siesta: ******************** Simulation parameters ****************************
siesta:
siesta: The following are some of the parameters of the simulation.
siesta: A complete list of the parameters used, including default values,
siesta: can be found in file out.fdf
siesta:
redata: Non-Collinear-spin run           =     F
redata: SpinPolarized (Up/Down) run      =     F
redata: Number of spin components        =     1
redata: Long output                      =     F
redata: Number of Atomic Species         =        1
redata: Charge density info will appear in .RHO file
redata: Write Mulliken Pop.              =     NO
redata: Mesh Cutoff                      =   200.0000  Ry
redata: Net charge of the system         =     0.0000 |e|
redata: Max. number of SCF Iter          =      200
redata: Performing Pulay mixing using    =     3 iterations
redata: Mix DM in first SCF step ?       =     F
redata: Write Pulay info on disk?        =     F
redata: Discard 1st Pulay DM after  kick =     F
redata: New DM Mixing Weight             =     0.1000
redata: New DM Occupancy tolerance       = 0.000000000001
redata: No kicks to SCF
redata: DM Mixing Weight for Kicks       =     0.5000
redata: DM Tolerance for SCF             =     0.000001
redata: Require Energy convergence for SCF =     F
redata: DM Energy tolerance for SCF      =     0.000100 eV
redata: Require Harris convergence for SCF =     F
redata: DM Harris energy tolerance for SCF =     0.000100 eV
redata: Using Saved Data (generic)   =     F
redata: Use continuation files for DM    =     F
redata: Neglect nonoverlap interactions  =     F
redata: Method of Calculation            =     Diagonalization
redata: Divide and Conquer               =     T
redata: Electronic Temperature           =     0.0019  Ry
redata: Fix the spin of the system       =     F
redata: Dynamics option                  =     Verlet MD run
redata: Initial MD time step             =        1
redata:   Final MD time step             =        1
redata: Length of MD time step           =     1.0000  fs
redata: Initial Temperature of MD run    =     0.0000  K
redata: Perform a MD quench              =     F
redata: ***********************************************************************
Total number of electrons:   960.000000
Total ionic charge:   960.000000

* ProcessorY, Blocksize:    2  24

 Kpoints in:            1 . Kpoints trimmed:            1

siesta: k-grid: Number of k-points =     1
siesta: k-grid: Cutoff (effective) =    10.000 Ang
siesta: k-grid: Supercell and displacements
siesta: k-grid:    1   0   0      0.000
siesta: k-grid:    0   1   0      0.000
siesta: k-grid:    0   0   1      0.000

siesta:                 ==============================
                            Begin MD step =      1

outcell: Unit cell vectors (Ang):
       20.000000    0.000000    0.000000
        0.000000   20.000000    0.000000
        0.000000    0.000000  320.400000

outcell: Cell vector modules (Ang)   :   20.000000   20.000000  320.400000
outcell: Cell angles (23,13,12) (deg):     90.0000     90.0000     90.0000
outcell: Cell volume (Ang**3)        : 128160.0000
New_DM. Step:     1
Initializing Density Matrix...

InitMesh: MESH =   180 x   180 x  2880 =    93312000
InitMesh: Mesh cutoff (required, used) =   200.000   223.307 Ry

stepf: Fermi-Dirac step function

siesta: Program's energy decomposition (eV):
siesta: Ebs     =    -14522.904104
siesta: Eions   =     61343.370237
siesta: Ena     =     13809.280762
siesta: Ekin    =     21257.105774
siesta: Enl     =       142.812539
siesta: DEna    =        -0.000082
siesta: DUscf   =         0.000000
siesta: DUext   =         0.000000
siesta: Exc     =    -10473.523568
siesta: eta*DQ  =         0.000000
siesta: Emadel  =         0.000000
siesta: Emeta   =         0.000000
siesta: Emolmec =         0.000000
siesta: Ekinion =         0.000000
siesta: Eharris =    -37001.540031
siesta: Etot    =    -36607.694812
siesta: FreeEng =    -36607.694812

siesta: E_KS(eV) =           -36943.0175

siesta: E_KS - E_eggbox =    -36943.0175

siesta: Atomic forces (eV/Ang):
   Tot   -0.001544   -0.000339   -1.578913
   Max    0.910092
   Res    0.041188    sqrt( Sum f_i^2 / 3N )
   Max    0.910092    constrained

Stress-tensor-Voigt (kbar):        0.00        0.00       10.88        0.00        0.00        0.00
(Free)E + p*V (eV/cell)   -37233.2004
Target enthalpy (eV/cell)   -36943.0176

siesta: Stress tensor (static) (eV/Ang**3):
         0.000001    0.000000    0.000000
         0.000000    0.000001    0.000000
         0.000000    0.000000    0.006790

siesta: Pressure (static):         -3.62772457  kBar

siesta: Stress tensor (total) (eV/Ang**3):
         0.000001    0.000000    0.000000
         0.000000    0.000001    0.000000
         0.000000    0.000000    0.006790

siesta: Pressure (total):         -3.62772457  kBar

siesta: Temp_ion =       0.000 K

siesta: Program's energy decomposition (eV):
siesta: Ebs     =    -12681.479866
siesta: Eions   =     61343.370237
siesta: Ena     =     13809.280762
siesta: Ekin    =     25002.350384
siesta: Enl     =     -3033.692780
siesta: DEna    =      -682.716672
siesta: DUscf   =        65.944579
siesta: DUext   =         0.000000
siesta: Exc     =    -10760.813560
siesta: eta*DQ  =         0.000000
siesta: Emadel  =         0.000000
siesta: Emeta   =         0.000000
siesta: Emolmec =         0.000000
siesta: Ekinion =         0.000000
siesta: Eharris =    -36943.018085
siesta: Etot    =    -36943.017523
siesta: FreeEng =    -36943.017569

siesta: Final energy (eV):
siesta:  Band Struct. =  -12681.479866
siesta:       Kinetic =   25002.350384
siesta:       Hartree =   80825.390754
siesta:    Ext. field =       0.000000
siesta:   Exch.-corr. =  -10760.813560
siesta:  Ion-electron = -185268.874711
siesta:       Ion-ion =   53258.929610
siesta:       Ekinion =       0.000000
siesta:         Total =  -36943.017523

siesta: Atomic forces (eV/Ang):
siesta:      1    0.004449    0.000002    0.910092
siesta:      2   -0.000003    0.000002   -0.012672
siesta:      3   -0.000002    0.000001   -0.012642
siesta:      4   -0.000002    0.000002   -0.012642
siesta:      5   -0.000002    0.000002   -0.012672
siesta:      6   -0.002433   -0.000002   -0.249330
siesta:      7   -0.000004   -0.000002   -0.000489
siesta:      8   -0.000004   -0.000002   -0.000516
siesta:      9   -0.000005   -0.000002   -0.000515
siesta:     10   -0.000004   -0.000002   -0.000481
siesta:     11   -0.000239   -0.000002   -0.165350
siesta:     12   -0.000011   -0.000002   -0.012667
siesta:     13   -0.000011   -0.000002   -0.012643
siesta:     14   -0.000011   -0.000003   -0.012643
siesta:     15   -0.000010   -0.000002   -0.012681
siesta:     16    0.000250    0.000000    0.082408
siesta:     17   -0.000004   -0.000001   -0.000492
siesta:     18   -0.000004   -0.000001   -0.000512
siesta:     19   -0.000003   -0.000001   -0.000511
siesta:     20   -0.000003   -0.000002   -0.000469
siesta:     21    0.000035    0.000000   -0.066745
siesta:     22   -0.000011   -0.000002   -0.012662
siesta:     23   -0.000011   -0.000003   -0.012643
siesta:     24   -0.000011   -0.000003   -0.012643
siesta:     25   -0.000010   -0.000003   -0.012691
siesta:     26   -0.000021   -0.000001    0.035558
siesta:     27   -0.000004   -0.000001   -0.000496
siesta:     28   -0.000004   -0.000001   -0.000512
siesta:     29   -0.000004   -0.000001   -0.000511
siesta:     30   -0.000003   -0.000001   -0.000456
siesta:     31   -0.000008   -0.000001   -0.039108
siesta:     32   -0.000011   -0.000002   -0.012658
siesta:     33   -0.000011   -0.000002   -0.012643
siesta:     34   -0.000011   -0.000003   -0.012643
siesta:     35   -0.000010   -0.000003   -0.012705
siesta:     36   -0.000006   -0.000002    0.018900
siesta:     37   -0.000004   -0.000001   -0.000500
siesta:     38   -0.000004   -0.000001   -0.000512
siesta:     39   -0.000003   -0.000001   -0.000511
siesta:     40   -0.000003   -0.000001   -0.000440
siesta:     41   -0.000008    0.000000   -0.027727
siesta:     42   -0.000011   -0.000003   -0.012655
siesta:     43   -0.000011   -0.000002   -0.012643
siesta:     44   -0.000011   -0.000002   -0.012643
siesta:     45   -0.000010   -0.000003   -0.012723
siesta:     46   -0.000002   -0.000001    0.011087
siesta:     47   -0.000004   -0.000001   -0.000502
siesta:     48   -0.000004   -0.000001   -0.000512
siesta:     49   -0.000004   -0.000001   -0.000510
siesta:     50   -0.000003   -0.000001   -0.000419
siesta:     51   -0.000011    0.000001   -0.021950
siesta:     52   -0.000010   -0.000002   -0.012653
siesta:     53   -0.000011   -0.000003   -0.012643
siesta:     54   -0.000011   -0.000002   -0.012644
siesta:     55   -0.000010   -0.000003   -0.012746
siesta:     56   -0.000003   -0.000002    0.006863
siesta:     57   -0.000003   -0.000001   -0.000504
siesta:     58   -0.000004   -0.000001   -0.000512
siesta:     59   -0.000004   -0.000001   -0.000510
siesta:     60   -0.000003   -0.000001   -0.000393
[...]
siesta:    226   -0.000003   -0.000002   -0.000470
siesta:    227   -0.000004   -0.000001   -0.000511
siesta:    228   -0.000004   -0.000001   -0.000511
siesta:    229   -0.000004   -0.000002   -0.000490
siesta:    230    0.000151   -0.000004    0.087836
siesta:    231   -0.000011   -0.000002   -0.012679
siesta:    232   -0.000011   -0.000002   -0.012642
siesta:    233   -0.000011   -0.000003   -0.012642
siesta:    234   -0.000011   -0.000003   -0.012665
siesta:    235   -0.000184   -0.000002   -0.167216
siesta:    236    0.000002    0.000006   -0.000476
siesta:    237    0.000002    0.000006   -0.000508
siesta:    238    0.000002    0.000006   -0.000507
siesta:    239    0.000002    0.000006   -0.000480
siesta:    240   -0.002009    0.000006   -0.473496
siesta: ----------------------------------------
siesta:    Tot   -0.001544   -0.000339   -1.578913

siesta: Stress tensor (static) (eV/Ang**3):
siesta:     0.000001    0.000000    0.000000
siesta:     0.000000    0.000001    0.000000
siesta:     0.000000    0.000000    0.006790

siesta: Cell volume =     128160.000000 Ang**3

siesta: Pressure (static):
siesta:                Solid            Molecule  Units
siesta:          -0.00002466         -0.00001952  Ry/Bohr**3
siesta:          -0.00226422         -0.00179218  eV/Ang**3
siesta:          -3.62772457         -2.87141250  kBar
(Free)E+ p_basis*V_orbitals  =      -36838.831370
(Free)Eharris+ p_basis*V_orbitals  =      -36838.832097

siesta: Electric dipole (a.u.)  =    0.000014    0.000003    0.000000
siesta: Electric dipole (Debye) =    0.000034    0.000008    0.000000

elaps:  Routine       Calls   Time/call    Tot.time        %
elaps:  siesta            1     760.806     760.806   100.00
elaps:  Setup             1       0.317       0.317     0.04
elaps:  bands             1       0.002       0.002     0.00
elaps:  writewave         1       0.005       0.005     0.00
elaps:  KSV_init          1       0.001       0.001     0.00
elaps:  IterMD            1     760.446     760.446    99.95
elaps:  hsparse           1       0.011       0.011     0.00
elaps:  overlap           1       0.260       0.260     0.03
elaps:  IterSCF          43      17.278     742.960    97.65
elaps:  kinefsm           2       0.145       0.291     0.04
elaps:  nlefsm            2       0.792       1.583     0.21
elaps:  DHSCF            44      10.902     479.694    63.05
elaps:  DHSCF1            1       1.599       1.599     0.21
elaps:  DHSCF2            1      11.175      11.175     1.47
elaps:  REORD           354       0.038      13.353     1.76
elaps:  POISON           45       5.832     262.418    34.49
elaps:  DHSCF3           44      10.392     457.246    60.10
elaps:  rhoofd           44       1.772      77.969    10.25
elaps:  cellXC           44       0.361      15.898     2.09
elaps:  vmat             44       1.162      51.142     6.72
elaps:  MolMec            2       0.000       0.000     0.00
elaps:  diagon           43       6.406     275.472    36.21
elaps:  r-eigvec         43       6.295     270.679    35.58
elaps:  r-buildHS        43       0.015       0.639     0.08
elaps:  rdiag            43       6.280     270.040    35.49
elaps:  rdiag1           43       0.230       9.883     1.30
elaps:  rdiag2           43       0.945      40.634     5.34
elaps:  rdiag3           43       4.448     191.264    25.14
elaps:  rdiag4           43       0.560      24.067     3.16
elaps:  r-buildD         43       0.109       4.699     0.62
elaps:  DHSCF4            1       5.720       5.720     0.75
elaps:  dfscf             1       5.269       5.269     0.69
elaps:  overfsm           1       0.042       0.042     0.01
elaps:  optical           1       0.001       0.001     0.00

>> End of run:   3-AUG-2014  17:06:24