>> Start of run:  23-APR-2019  15:03:24

reinit: Reading from standard input
************************** Dump of input data file ****************************
#(1) General system descriptors
SystemName       cc_strain   # Descriptive name of the system
SystemLabel      cc_strain   # Short name for naming files
%include STRUCT.fdf
%include KPT.fdf
%include BASIS.fdf
#(4) DFT, Grid, SCF
XC.functional         LDA           # LDA or GGA (default = LDA)
XC.authors            CA            # CA (Ceperley-Aldr) = PZ
MeshCutoff            200.0 Ry      # Default: 50.0 Ry ~ 0.444 Bohr
MaxSCFIterations      200           # Default: 50
DM.MixingWeight       0.10          # Default: 0.25
DM.NumberPulay        3             # Default: 0
DM.PulayOnFile        F             # SystemLabel.P1, SystemLabel.P2
DM.Tolerance          1.d-6         # Default: 1.d-4
NeglNonOverlapInt     F             # Default: F
#(5) Eigenvalue problem: order-N or diagonalization
SolutionMethod        Diagon        # Default: OrderN/Diagon for >/< 100 atoms
ElectronicTemperature 300.0 K       # Default: 300.0 K
#(6) Molecular dynamics and relaxations
#MD.TypeOfRun          CG            # Type of dynamics:
                                    #   - CG
                                    #   - Verlet
                                    #   - Nose
                                    #   - ParrinelloRahman
                                    #   - NoseParrinelloRahman
                                    #   - Anneal
                                    #   - FC
                                    #   - Phonon
#MD.VariableCell        F
#MD.NumCGsteps          200           # Default: 0
#MD.MaxCGDispl          0.1 Ang       # Default: 0.2 Bohr
#MD.MaxForceTol         0.001 eV/Ang   # Default: 0.04 eV/Ang
#MD.MaxStressTol        1.0 GPa       # Default: 1.0 GPa
#(9) Output options
#WriteCoorInitial      T      # SystemLabel.out
#WriteKpoints          T      # SystemLabel.out
#WriteEigenvalues      T      # SystemLabel.out [otherwise ~.EIG]
#WriteKbands           T      # SystemLabel.out, band structure
#WriteBands            T      # SystemLabel.bands, band structure
#WriteMDXmol           T      # SystemLabel.ANI
#AllocReportLevel      2      # SystemLabel.alloc, Default: 0
#(10) Options for saving/reading information
#SaveHS                F      # SystemLabel.HS
#SaveRho               F      # SystemLabel.RHO
#SaveDeltaRho          F      # SystemLabel.DRHO
#SaveElectrostaticPotential F # SystemLabel.VH
#SaveTotalPotential    F      # SystemLabel.VT
************************** End of input data file *****************************

reinit: -----------------------------------------------------------------------
reinit: System Name: cc_strain
reinit: -----------------------------------------------------------------------
reinit: System Label: cc_strain
reinit: -----------------------------------------------------------------------

initatom: Reading input for the pseudopotentials and atomic orbitals ----------
 Species number:            1  Label: C Atomic number:           6
Ground state valence configuration:   2s02  2p02
Reading pseudopotential information in formatted form from C.psf

Valence configuration for pseudopotential generation:
2s( 2.00) rc: 1.54
2p( 2.00) rc: 1.54
3d( 0.00) rc: 1.54
4f( 0.00) rc: 1.54
For C, standard SIESTA heuristics set lmxkb to 3
 (one more than the basis l, including polarization orbitals).
Use PS.lmax or PS.KBprojectors blocks to override.

<basis_specs>
C                    Z=   6    Mass=  12.010        Charge= 0.17977+309
Lmxo=1 Lmxkb= 3    BasisType=split      Semic=F
L=0  Nsemic=0  Cnfigmx=2
          n=1  nzeta=2  polorb=0
            splnorm:   0.15000
               vcte:    0.0000
               rinn:    0.0000
                rcs:    0.0000      0.0000
            lambdas:    1.0000      1.0000
L=1  Nsemic=0  Cnfigmx=2
          n=1  nzeta=2  polorb=1
            splnorm:   0.15000
               vcte:    0.0000
               rinn:    0.0000
                rcs:    0.0000      0.0000
            lambdas:    1.0000      1.0000
L=0  Nkbl=1  erefs: 0.17977+309
L=1  Nkbl=1  erefs: 0.17977+309
L=2  Nkbl=1  erefs: 0.17977+309
L=3  Nkbl=1  erefs: 0.17977+309
</basis_specs>

atom: Called for C                     (Z =   6)

read_vps: Pseudopotential generation method:
read_vps: ATM3      Troullier-Martins
Total valence charge:    4.00000

xc_check: Exchange-correlation functional:
xc_check: Ceperley-Alder
V l=0 = -2*Zval/r beyond r=  1.5227
V l=1 = -2*Zval/r beyond r=  1.5227
V l=2 = -2*Zval/r beyond r=  1.5227
V l=3 = -2*Zval/r beyond r=  1.5038
All V_l potentials equal beyond r=  1.5227
This should be close to max(r_c) in ps generation
All pots = -2*Zval/r beyond r=  1.5227

VLOCAL1: 99.0% of the norm of Vloc inside     18.722 Ry
VLOCAL1: 99.9% of the norm of Vloc inside     42.668 Ry
atom: Maximum radius for 4*pi*r*r*local-pseudopot. charge    1.83678
atom: Maximum radius for r*vlocal+2*Zval:    1.58088
GHOST: No ghost state for L =  0
GHOST: No ghost state for L =  1
GHOST: No ghost state for L =  2
GHOST: No ghost state for L =  3

KBgen: Kleinman-Bylander projectors:
   l= 0   rc=  1.747182   el= -1.001948   Ekb=  4.950286   kbcos=  0.319819
   l= 1   rc=  1.747182   el= -0.398598   Ekb= -4.108613   kbcos= -0.367053
   l= 2   rc=  1.930978   el=  0.002326   Ekb= -1.042946   kbcos= -0.009366
   l= 3   rc=  2.055542   el=  0.003420   Ekb= -0.408633   kbcos= -0.001262

KBgen: Total number of  Kleinman-Bylander projectors:   16
atom: -------------------------------------------------------------------------

atom: SANKEY-TYPE ORBITALS:
atom: Selected multiple-zeta basis: split

SPLIT: Orbitals with angular momentum L= 0

SPLIT: Basis orbitals for state 2s

SPLIT: PAO cut-off radius determined from an
SPLIT: energy shift=  0.007350 Ry

   izeta = 1
                 lambda =    1.000000
                     rc =    4.750042
                 energy =   -0.995550
                kinetic =    0.836554
    potential(screened) =   -1.832105
       potential(ionic) =   -5.411563

   izeta = 2
                 rmatch =    3.475094
              splitnorm =    0.150000
                 energy =   -0.863818
                kinetic =    1.275700
    potential(screened) =   -2.139519
       potential(ionic) =   -5.974623

SPLIT: Orbitals with angular momentum L= 1

SPLIT: Basis orbitals for state 2p

SPLIT: PAO cut-off radius determined from an
SPLIT: energy shift=  0.007350 Ry

   izeta = 1
                 lambda =    1.000000
                     rc =    5.658549
                 energy =   -0.391318
                kinetic =    2.418316
    potential(screened) =   -2.809634
       potential(ionic) =   -6.260731

   izeta = 2
                 rmatch =    3.653288
              splitnorm =    0.150000
                 energy =   -0.250682
                kinetic =    3.628438
    potential(screened) =   -3.879120
       potential(ionic) =   -7.728599

POLgen: Perturbative polarization orbital with L=  2

POLgen: Polarization orbital for state 2p

   izeta = 1
                     rc =    5.658549
                 energy =    1.095459
                kinetic =    2.293542
    potential(screened) =   -1.198083
       potential(ionic) =   -4.007104
atom: Total number of Sankey-type orbitals: 13

atm_pop: Valence configuration (for local Pseudopot. screening):
 2s( 2.00)
 2p( 2.00)
Vna: chval, zval:    4.00000   4.00000

Vna:  Cut-off radius for the neutral-atom potential:   5.658549

atom: _________________________________________________________________________

prinput: Basis input ----------------------------------------------------------

PAO.BasisType split

%block ChemicalSpeciesLabel
    1    6 C                       # Species index, atomic number, species label
%endblock ChemicalSpeciesLabel

%block PAO.Basis                 # Define Basis set
C                     2                    # Species label, number of l-shells
 n=2   0   2                         # n, l, Nzeta
   4.750      3.475
   1.000      1.000
 n=2   1   2 P   1                   # n, l, Nzeta, Polarization, NzetaPol
   5.659      3.653
   1.000      1.000
%endblock PAO.Basis

prinput: ----------------------------------------------------------------------

coor:   Atomic-coordinates input format  =     Fractional

siesta: Atomic coordinates (Bohr) and species
siesta:     18.89849  18.89725   0.01996  1        1
siesta:     18.89724  18.89725 121.09365  1        2
siesta:     18.89724  18.89725 242.18730  1        3
siesta:     18.89724  18.89725 363.28095  1        4
siesta:     18.89724  18.89725 484.37460  1        5
siesta:     18.89725  18.89725   2.58953  1        6
siesta:     18.89725  18.89725 123.68318  1        7
siesta:     18.89725  18.89725 244.77683  1        8
siesta:     18.89725  18.89725 365.87048  1        9
siesta:     18.89725  18.89725 486.96413  1       10
siesta:     18.89724  18.89725   5.04557  1       11
siesta:     18.89724  18.89725 126.13922  1       12
siesta:     18.89724  18.89725 247.23287  1       13
siesta:     18.89724  18.89725 368.32652  1       14
siesta:     18.89724  18.89725 489.42017  1       15
siesta:     18.89725  18.89725   7.63510  1       16
siesta:     18.89725  18.89725 128.72875  1       17
siesta:     18.89725  18.89725 249.82240  1       18
siesta:     18.89725  18.89725 370.91605  1       19
siesta:     18.89725  18.89725 492.00970  1       20
siesta:     18.89724  18.89725  10.09114  1       21
siesta:     18.89724  18.89725 131.18479  1       22
siesta:     18.89724  18.89725 252.27844  1       23
siesta:     18.89724  18.89725 373.37209  1       24
siesta:     18.89724  18.89725 494.46574  1       25
siesta:     18.89725  18.89725  12.68067  1       26
siesta:     18.89725  18.89725 133.77432  1       27
siesta:     18.89725  18.89725 254.86797  1       28
siesta:     18.89725  18.89725 375.96162  1       29
siesta:     18.89725  18.89725 497.05527  1       30
siesta:     18.89724  18.89725  15.13671  1       31
siesta:     18.89724  18.89725 136.23036  1       32
siesta:     18.89724  18.89725 257.32401  1       33
siesta:     18.89724  18.89725 378.41766  1       34
siesta:     18.89724  18.89725 499.51131  1       35
siesta:     18.89725  18.89725  17.72623  1       36
siesta:     18.89725  18.89725 138.81988  1       37
siesta:     18.89725  18.89725 259.91354  1       38
siesta:     18.89725  18.89725 381.00719  1       39
siesta:     18.89725  18.89725 502.10084  1       40
siesta:     18.89724  18.89725  20.18228  1       41
siesta:     18.89724  18.89725 141.27593  1       42
siesta:     18.89724  18.89725 262.36958  1       43
siesta:     18.89724  18.89725 383.46323  1       44
siesta:     18.89724  18.89725 504.55688  1       45
siesta:     18.89725  18.89725  22.77180  1       46
siesta:     18.89725  18.89725 143.86545  1       47
siesta:     18.89725  18.89725 264.95910  1       48
siesta:     18.89725  18.89725 386.05276  1       49
siesta:     18.89725  18.89725 507.14641  1       50
siesta:     18.89724  18.89725  25.22784  1       51
siesta:     18.89724  18.89725 146.32149  1       52
siesta:     18.89724  18.89725 267.41515  1       53
siesta:     18.89724  18.89725 388.50880  1       54
siesta:     18.89724  18.89725 509.60245  1       55
siesta:     18.89725  18.89725  27.81737  1       56
siesta:     18.89725  18.89725 148.91102  1       57
siesta:     18.89725  18.89725 270.00467  1       58
siesta:     18.89725  18.89725 391.09832  1       59
siesta:     18.89725  18.89725 512.19197  1       60
[...]
siesta:     18.89725  18.89725 113.59204  1      226
siesta:     18.89725  18.89725 234.68569  1      227
siesta:     18.89725  18.89725 355.77934  1      228
siesta:     18.89725  18.89725 476.87299  1      229
siesta:     18.89725  18.89725 597.96664  1      230
siesta:     18.89724  18.89725 116.04808  1      231
siesta:     18.89724  18.89725 237.14173  1      232
siesta:     18.89724  18.89725 358.23538  1      233
siesta:     18.89724  18.89725 479.32903  1      234
siesta:     18.89724  18.89725 600.42269  1      235
siesta:     18.89725  18.89725 118.63761  1      236
siesta:     18.89725  18.89725 239.73126  1      237
siesta:     18.89725  18.89725 360.82491  1      238
siesta:     18.89725  18.89725 481.91856  1      239
siesta:     18.89725  18.89725 603.01221  1      240

siesta: System type = chain

initatomlists: Number of atoms, orbitals, and projectors:    240  3120  3840

siesta: ******************** Simulation parameters ****************************
siesta:
siesta: The following are some of the parameters of the simulation.
siesta: A complete list of the parameters used, including default values,
siesta: can be found in file out.fdf
siesta:
redata: Non-Collinear-spin run           =     F
redata: SpinPolarized (Up/Down) run      =     F
redata: Number of spin components        =     1
redata: Long output                      =     F
redata: Number of Atomic Species         =        1
redata: Charge density info will appear in .RHO file
redata: Write Mulliken Pop.              =     NO
redata: Mesh Cutoff                      =   200.0000  Ry
redata: Net charge of the system         =     0.0000 |e|
redata: Max. number of SCF Iter          =      200
redata: Performing Pulay mixing using    =     3 iterations
redata: Mix DM in first SCF step ?       =     F
redata: Write Pulay info on disk?        =     F
redata: Discard 1st Pulay DM after  kick =     F
redata: New DM Mixing Weight             =     0.1000
redata: New DM Occupancy tolerance       = 0.000000000001
redata: No kicks to SCF
redata: DM Mixing Weight for Kicks       =     0.5000
redata: DM Tolerance for SCF             =     0.000001
redata: Require Energy convergence for SCF =     F
redata: DM Energy tolerance for SCF      =     0.000100 eV
redata: Require Harris convergence for SCF =     F
redata: DM Harris energy tolerance for SCF =     0.000100 eV
redata: Using Saved Data (generic)   =     F
redata: Use continuation files for DM    =     F
redata: Neglect nonoverlap interactions  =     F
redata: Method of Calculation            =     Diagonalization
redata: Divide and Conquer               =     T
redata: Electronic Temperature           =     0.0019  Ry
redata: Fix the spin of the system       =     F
redata: Dynamics option                  =     Verlet MD run
redata: Initial MD time step             =        1
redata:   Final MD time step             =        1
redata: Length of MD time step           =     1.0000  fs
redata: Initial Temperature of MD run    =     0.0000  K
redata: Perform a MD quench              =     F
redata: ***********************************************************************
Total number of electrons:   960.000000
Total ionic charge:   960.000000

* ProcessorY, Blocksize:    2  24

 Kpoints in:            1 . Kpoints trimmed:            1

siesta: k-grid: Number of k-points =     1
siesta: k-grid: Cutoff (effective) =    10.000 Ang
siesta: k-grid: Supercell and displacements
siesta: k-grid:    1   0   0      0.000
siesta: k-grid:    0   1   0      0.000
siesta: k-grid:    0   0   1      0.000

siesta:                 ==============================
                            Begin MD step =      1

outcell: Unit cell vectors (Ang):
       19.999992    0.000000    0.000000
        0.000000   19.999992    0.000000
        0.000000    0.000000  320.399874

outcell: Cell vector modules (Ang)   :   19.999992   19.999992  320.399874
outcell: Cell angles (23,13,12) (deg):     90.0000     90.0000     90.0000
outcell: Cell volume (Ang**3)        : 128159.8493
New_DM. Step:     1
Initializing Density Matrix...

InitMesh: MESH =   180 x   180 x  2880 =    93312000
InitMesh: Mesh cutoff (required, used) =   200.000   223.307 Ry

stepf: Fermi-Dirac step function

siesta: Program's energy decomposition (eV):
siesta: Ebs     =    -14522.625152
siesta: Eions   =     61343.370237
siesta: Ena     =     13809.232716
siesta: Ekin    =     21257.105774
siesta: Enl     =       142.768084
siesta: DEna    =        -0.000091
siesta: DUscf   =         0.000000
siesta: DUext   =         0.000000
siesta: Exc     =    -10473.509201
siesta: eta*DQ  =         0.000000
siesta: Emadel  =         0.000000
siesta: Emeta   =         0.000000
siesta: Emolmec =         0.000000
siesta: Ekinion =         0.000000
siesta: Eharris =    -37001.484124
siesta: Etot    =    -36607.772955
siesta: FreeEng =    -36607.772955

siesta: E_KS(eV) =           -36943.0174

siesta: E_KS - E_eggbox =    -36943.0174

siesta: Atomic forces (eV/Ang):
   Tot   -0.000616   -0.000228   -1.577866
   Max    0.960218
   Res    0.042393    sqrt( Sum f_i^2 / 3N )
   Max    0.960218    constrained

Stress-tensor-Voigt (kbar):        0.00        0.00       10.88        0.00        0.00        0.00
(Free)E + p*V (eV/cell)   -37233.3292
Target enthalpy (eV/cell)   -36943.0175

siesta: Stress tensor (static) (eV/Ang**3):
         0.000001    0.000000    0.000000
         0.000000    0.000001    0.000000
         0.000000    0.000000    0.006793

siesta: Pressure (static):         -3.62934063  kBar

siesta: Stress tensor (total) (eV/Ang**3):
         0.000001    0.000000    0.000000
         0.000000    0.000001    0.000000
         0.000000    0.000000    0.006793

siesta: Pressure (total):         -3.62934063  kBar

siesta: Temp_ion =       0.000 K

siesta: Program's energy decomposition (eV):
siesta: Ebs     =    -12681.543429
siesta: Eions   =     61343.370237
siesta: Ena     =     13809.232716
siesta: Ekin    =     25002.115753
siesta: Enl     =     -3033.643385
siesta: DEna    =      -682.512626
siesta: DUscf   =        65.900876
siesta: DUext   =         0.000000
siesta: Exc     =    -10760.740517
siesta: eta*DQ  =         0.000000
siesta: Emadel  =         0.000000
siesta: Emeta   =         0.000000
siesta: Emolmec =         0.000000
siesta: Ekinion =         0.000000
siesta: Eharris =    -36943.017501
siesta: Etot    =    -36943.017420
siesta: FreeEng =    -36943.017469

siesta: Final energy (eV):
siesta:  Band Struct. =  -12681.543429
siesta:       Kinetic =   25002.115753
siesta:       Hartree =   80825.033246
siesta:    Ext. field =       0.000000
siesta:   Exch.-corr. =  -10760.740517
siesta:  Ion-electron = -185268.086091
siesta:       Ion-ion =   53258.660189
siesta:       Ekinion =       0.000000
siesta:         Total =  -36943.017420

siesta: Atomic forces (eV/Ang):
siesta:      1   -0.004859    0.000012   -0.960218
siesta:      2   -0.000001    0.000004   -0.012596
siesta:      3   -0.000001    0.000005   -0.012624
siesta:      4   -0.000001    0.000004   -0.012623
siesta:      5   -0.000001    0.000005   -0.012596
siesta:      6    0.002295   -0.000001    0.279417
siesta:      7    0.000001   -0.000002   -0.000557
siesta:      8    0.000002   -0.000002   -0.000533
siesta:      9    0.000001   -0.000002   -0.000532
siesta:     10    0.000002   -0.000003   -0.000565
siesta:     11    0.000221    0.000003    0.153199
siesta:     12   -0.000007    0.000001   -0.012606
siesta:     13   -0.000007    0.000001   -0.012627
siesta:     14   -0.000006    0.000001   -0.012627
siesta:     15   -0.000007    0.000001   -0.012589
siesta:     16   -0.000272   -0.000003   -0.090666
siesta:     17    0.000006   -0.000002   -0.000546
siesta:     18    0.000006   -0.000001   -0.000528
siesta:     19    0.000007   -0.000001   -0.000527
siesta:     20    0.000007   -0.000002   -0.000570
siesta:     21   -0.000025   -0.000005    0.046168
siesta:     22   -0.000007   -0.000004   -0.012608
siesta:     23   -0.000008   -0.000005   -0.012624
siesta:     24   -0.000008   -0.000005   -0.012624
siesta:     25   -0.000008   -0.000004   -0.012575
siesta:     26    0.000020   -0.000002   -0.039786
siesta:     27   -0.000002   -0.000002   -0.000545
siesta:     28   -0.000003   -0.000002   -0.000529
siesta:     29   -0.000003   -0.000002   -0.000529
siesta:     30   -0.000003   -0.000002   -0.000585
siesta:     31    0.000004    0.000001    0.016223
siesta:     32   -0.000011    0.000001   -0.012612
siesta:     33   -0.000011    0.000001   -0.012624
siesta:     34   -0.000011    0.000001   -0.012623
siesta:     35   -0.000011    0.000001   -0.012560
siesta:     36    0.000004   -0.000001   -0.021715
siesta:     37    0.000002   -0.000002   -0.000540
siesta:     38    0.000002   -0.000001   -0.000530
siesta:     39    0.000002   -0.000002   -0.000530
siesta:     40    0.000002   -0.000002   -0.000603
siesta:     41   -0.000004    0.000001    0.003850
siesta:     42   -0.000007    0.000002   -0.012618
siesta:     43   -0.000006    0.000001   -0.012626
siesta:     44   -0.000006    0.000002   -0.012626
siesta:     45   -0.000007    0.000002   -0.012541
siesta:     46    0.000007   -0.000002   -0.013209
siesta:     47    0.000007   -0.000001   -0.000536
siesta:     48    0.000007   -0.000001   -0.000528
siesta:     49    0.000007   -0.000001   -0.000527
siesta:     50    0.000007   -0.000001   -0.000623
siesta:     51   -0.000007   -0.000005   -0.002435
siesta:     52   -0.000008   -0.000004   -0.012617
siesta:     53   -0.000008   -0.000005   -0.012624
siesta:     54   -0.000008   -0.000005   -0.012624
siesta:     55   -0.000008   -0.000005   -0.012513
siesta:     56   -0.000003   -0.000003   -0.008603
siesta:     57   -0.000002   -0.000002   -0.000537
siesta:     58   -0.000003   -0.000002   -0.000530
siesta:     59   -0.000003   -0.000002   -0.000529
siesta:     60   -0.000002   -0.000002   -0.000656
[...]
siesta:    226    0.000006   -0.000002   -0.000571
siesta:    227    0.000006   -0.000002   -0.000527
siesta:    228    0.000007   -0.000001   -0.000527
siesta:    229    0.000006   -0.000002   -0.000546
siesta:    230   -0.000178   -0.000003   -0.094652
siesta:    231   -0.000008   -0.000004   -0.012588
siesta:    232   -0.000008   -0.000005   -0.012623
siesta:    233   -0.000008   -0.000004   -0.012624
siesta:    234   -0.000008   -0.000004   -0.012601
siesta:    235    0.000286   -0.000004    0.151035
siesta:    236    0.000005    0.000006   -0.000558
siesta:    237    0.000005    0.000007   -0.000525
siesta:    238    0.000005    0.000006   -0.000525
siesta:    239    0.000005    0.000006   -0.000550
siesta:    240    0.002509    0.000007    0.451949
siesta: ----------------------------------------
siesta:    Tot   -0.000616   -0.000228   -1.577866

siesta: Stress tensor (static) (eV/Ang**3):
siesta:     0.000001    0.000000    0.000000
siesta:     0.000000    0.000001    0.000000
siesta:     0.000000    0.000000    0.006793

siesta: Cell volume =     128159.849294 Ang**3

siesta: Pressure (static):
siesta:                Solid            Molecule  Units
siesta:          -0.00002467         -0.00002973  Ry/Bohr**3
siesta:          -0.00226523         -0.00273011  eV/Ang**3
siesta:          -3.62934063         -4.37416121  kBar
(Free)E+ p_basis*V_orbitals  =      -36838.831269
(Free)Eharris+ p_basis*V_orbitals  =      -36838.831476

siesta: Electric dipole (a.u.)  =    0.000010    0.000005    0.000000
siesta: Electric dipole (Debye) =    0.000024    0.000013    0.000000

elaps:  Routine       Calls   Time/call    Tot.time        %
elaps:  siesta            1     841.650     841.650   100.00
elaps:  Setup             1       0.454       0.454     0.05
elaps:  bands             1       0.003       0.003     0.00
elaps:  writewave         1       0.008       0.008     0.00
elaps:  KSV_init          1       0.001       0.001     0.00
elaps:  IterMD            1     841.146     841.146    99.94
elaps:  hsparse           1       0.011       0.011     0.00
elaps:  overlap           1       0.258       0.258     0.03
elaps:  IterSCF          47      17.514     823.157    97.80
elaps:  kinefsm           2       0.146       0.291     0.03
elaps:  nlefsm            2       0.802       1.604     0.19
elaps:  DHSCF            48      11.003     528.150    62.75
elaps:  DHSCF1            1       1.651       1.651     0.20
elaps:  DHSCF2            1      11.396      11.396     1.35
elaps:  REORD           386       0.039      14.877     1.77
elaps:  POISON           49       5.799     284.161    33.76
elaps:  DHSCF3           48      10.514     504.688    59.96
elaps:  rhoofd           48       1.870      89.761    10.66
elaps:  cellXC           48       0.381      18.287     2.17
elaps:  vmat             48       1.222      58.677     6.97
elaps:  MolMec            2       0.000       0.000     0.00
elaps:  diagon           47       6.528     306.826    36.46
elaps:  r-eigvec         47       6.416     301.568    35.83
elaps:  r-buildHS        47       0.015       0.717     0.09
elaps:  rdiag            47       6.401     300.851    35.75
elaps:  rdiag1           47       0.234      11.008     1.31
elaps:  rdiag2           47       0.983      46.181     5.49
elaps:  rdiag3           47       4.524     212.623    25.26
elaps:  rdiag4           47       0.576      27.059     3.21
elaps:  r-buildD         47       0.109       5.140     0.61
elaps:  DHSCF4            1       6.026       6.026     0.72
elaps:  dfscf             1       5.549       5.549     0.66
elaps:  overfsm           1       0.045       0.045     0.01
elaps:  optical           1       0.001       0.001     0.00

>> End of run:  23-APR-2019  15:17:26